p edge 120 840
e 1 10
e 1 38
e 1 41
e 1 58
e 1 60
e 1 80
e 1 112
e 2 8
e 2 12
e 2 32
e 2 36
e 2 70
e 2 82
e 2 88
e 3 6
e 3 17
e 3 18
e 3 30
e 3 34
e 3 67
e 3 107
e 4 29
e 4 60
e 4 84
e 4 89
e 4 93
e 4 105
e 4 112
e 5 15
e 5 29
e 5 30
e 5 31
e 5 49
e 5 60
e 5 64
e 6 36
e 6 37
e 6 44
e 6 70
e 6 84
e 6 99
e 6 101
e 7 2
e 7 11
e 7 36
e 7 52
e 7 60
e 7 86
e 7 87
e 8 2
e 8 22
e 8 45
e 8 69
e 8 74
e 8 89
e 8 111
e 9 5
e 9 35
e 9 50
e 9 75
e 9 85
e 9 101
e 9 108
e 10 39
e 10 52
e 10 57
e 10 64
e 10 86
e 10 100
e 10 108
e 11 17
e 11 29
e 11 36
e 11 72
e 11 78
e 11 106
e 11 113
e 12 2
e 12 13
e 12 30
e 12 48
e 12 99
e 12 115
e 12 116
e 13 38
e 13 64
e 13 69
e 13 74
e 13 75
e 13 76
e 13 99
e 14 5
e 14 10
e 14 44
e 14 49
e 14 52
e 14 52
e 14 57
e 15 1
e 15 41
e 15 44
e 15 54
e 15 65
e 15 87
e 15 99
e 16 2
e 16 10
e 16 49
e 16 49
e 16 59
e 16 78
e 16 118
e 17 24
e 17 31
e 17 37
e 17 45
e 17 46
e 17 51
e 17 64
e 18 5
e 18 6
e 18 31
e 18 53
e 18 60
e 18 66
e 18 70
e 19 3
e 19 34
e 19 60
e 19 70
e 19 75
e 19 103
e 19 107
e 20 5
e 20 14
e 20 28
e 20 38
e 20 69
e 20 76
e 20 105
e 21 12
e 21 60
e 21 63
e 21 64
e 21 96
e 21 107
e 21 109
e 22 9
e 22 11
e 22 23
e 22 46
e 22 72
e 22 101
e 22 103
e 23 1
e 23 2
e 23 35
e 23 62
e 23 66
e 23 91
e 23 119
e 24 5
e 24 43
e 24 57
e 24 66
e 24 66
e 24 67
e 24 69
e 25 17
e 25 43
e 25 45
e 25 54
e 25 99
e 25 103
e 25 118
e 26 1
e 26 37
e 26 60
e 26 62
e 26 93
e 26 100
e 26 105
e 27 12
e 27 49
e 27 69
e 27 71
e 27 72
e 27 82
e 27 94
e 28 4
e 28 11
e 28 14
e 28 15
e 28 41
e 28 80
e 28 101
e 29 14
e 29 40
e 29 60
e 29 77
e 29 94
e 29 101
e 29 102
e 30 27
e 30 33
e 30 45
e 30 56
e 30 87
e 30 109
e 30 111
e 31 11
e 31 45
e 31 45
e 31 61
e 31 97
e 31 97
e 31 103
e 32 19
e 32 20
e 32 37
e 32 46
e 32 48
e 32 68
e 32 91
e 33 10
e 33 29
e 33 53
e 33 57
e 33 78
e 33 93
e 33 100
e 34 7
e 34 22
e 34 51
e 34 74
e 34 90
e 34 103
e 34 108
e 35 2
e 35 13
e 35 56
e 35 60
e 35 80
e 35 82
e 35 102
e 36 20
e 36 21
e 36 66
e 36 92
e 36 105
e 36 108
e 36 113
e 37 1
e 37 25
e 37 48
e 37 59
e 37 109
e 37 111
e 37 118
e 38 2
e 38 23
e 38 30
e 38 31
e 38 65
e 38 116
e 38 117
e 39 13
e 39 21
e 39 26
e 39 33
e 39 45
e 39 51
e 39 53
e 40 3
e 40 12
e 40 20
e 40 41
e 40 63
e 40 99
e 40 106
e 41 61
e 41 85
e 41 90
e 41 99
e 41 111
e 41 111
e 41 114
e 42 13
e 42 17
e 42 22
e 42 24
e 42 75
e 42 100
e 42 116
e 43 5
e 43 19
e 43 34
e 43 57
e 43 60
e 43 90
e 43 91
e 44 5
e 44 23
e 44 37
e 44 56
e 44 60
e 44 74
e 44 101
e 45 2
e 45 8
e 45 14
e 45 86
e 45 102
e 45 105
e 45 119
e 46 7
e 46 65
e 46 75
e 46 83
e 46 83
e 46 98
e 46 100
e 47 9
e 47 27
e 47 43
e 47 49
e 47 62
e 47 105
e 47 109
e 48 19
e 48 37
e 48 65
e 48 79
e 48 109
e 48 110
e 48 113
e 49 9
e 49 9
e 49 14
e 49 14
e 49 64
e 49 67
e 49 74
e 50 4
e 50 8
e 50 9
e 50 10
e 50 67
e 50 91
e 50 115
e 51 7
e 51 21
e 51 71
e 51 78
e 51 84
e 51 90
e 51 109
e 52 4
e 52 18
e 52 53
e 52 54
e 52 74
e 52 76
e 52 104
e 53 7
e 53 18
e 53 33
e 53 46
e 53 56
e 53 69
e 53 77
e 54 10
e 54 15
e 54 61
e 54 77
e 54 82
e 54 95
e 54 118
e 55 31
e 55 51
e 55 61
e 55 68
e 55 69
e 55 69
e 55 105
e 56 20
e 56 44
e 56 58
e 56 63
e 56 75
e 56 77
e 56 108
e 57 3
e 57 4
e 57 21
e 57 42
e 57 104
e 57 109
e 57 120
e 58 7
e 58 15
e 58 19
e 58 48
e 58 72
e 58 80
e 58 96
e 59 16
e 59 20
e 59 25
e 59 30
e 59 74
e 59 88
e 59 93
e 60 6
e 60 24
e 60 50
e 60 56
e 60 82
e 60 85
e 60 110
e 61 10
e 61 12
e 61 30
e 61 58
e 61 97
e 61 101
e 61 119
e 62 13
e 62 24
e 62 25
e 62 29
e 62 36
e 62 48
e 62 63
e 63 10
e 63 21
e 63 22
e 63 43
e 63 70
e 63 71
e 63 83
e 64 1
e 64 27
e 64 33
e 64 43
e 64 88
e 64 102
e 64 118
e 65 31
e 65 42
e 65 64
e 65 70
e 65 82
e 65 85
e 65 106
e 66 78
e 66 88
e 66 91
e 66 107
e 66 109
e 66 115
e 66 117
e 67 5
e 67 9
e 67 15
e 67 18
e 67 39
e 67 46
e 67 59
e 68 7
e 68 33
e 68 67
e 68 77
e 68 101
e 68 107
e 68 115
e 69 11
e 69 19
e 69 33
e 69 50
e 69 67
e 69 77
e 69 117
e 70 1
e 70 6
e 70 11
e 70 48
e 70 52
e 70 72
e 70 74
e 71 33
e 71 47
e 71 55
e 71 64
e 71 68
e 71 98
e 71 116
e 72 13
e 72 33
e 72 40
e 72 50
e 72 51
e 72 51
e 72 79
e 73 21
e 73 34
e 73 36
e 73 36
e 73 42
e 73 70
e 73 75
e 74 5
e 74 11
e 74 28
e 74 47
e 74 59
e 74 89
e 74 120
e 75 7
e 75 50
e 75 57
e 75 58
e 75 58
e 75 78
e 75 101
e 76 18
e 76 20
e 76 46
e 76 53
e 76 64
e 76 66
e 76 79
e 77 10
e 77 44
e 77 74
e 77 78
e 77 99
e 77 114
e 77 114
e 78 8
e 78 10
e 78 35
e 78 69
e 78 79
e 78 112
e 78 118
e 79 20
e 79 47
e 79 61
e 79 66
e 79 99
e 79 109
e 79 119
e 80 2
e 80 38
e 80 48
e 80 79
e 80 94
e 80 114
e 80 115
e 81 20
e 81 25
e 81 44
e 81 71
e 81 80
e 81 90
e 81 98
e 82 8
e 82 14
e 82 23
e 82 23
e 82 35
e 82 42
e 82 112
e 83 18
e 83 32
e 83 43
e 83 60
e 83 76
e 83 93
e 83 111
e 84 12
e 84 32
e 84 42
e 84 68
e 84 78
e 84 81
e 84 95
e 85 18
e 85 21
e 85 55
e 85 62
e 85 100
e 85 111
e 85 112
e 86 2
e 86 6
e 86 73
e 86 77
e 86 77
e 86 83
e 86 99
e 87 5
e 87 71
e 87 99
e 87 100
e 87 101
e 87 112
e 87 117
e 88 19
e 88 22
e 88 53
e 88 91
e 88 94
e 88 100
e 88 103
e 89 4
e 89 25
e 89 57
e 89 58
e 89 86
e 89 92
e 89 97
e 90 48
e 90 58
e 90 65
e 90 80
e 90 93
e 90 100
e 90 112
e 91 19
e 91 38
e 91 41
e 91 48
e 91 66
e 91 71
e 91 117
e 92 4
e 92 6
e 92 10
e 92 15
e 92 26
e 92 45
e 92 112
e 93 16
e 93 36
e 93 55
e 93 89
e 93 92
e 93 110
e 93 111
e 94 23
e 94 34
e 94 39
e 94 43
e 94 46
e 94 63
e 94 83
e 95 15
e 95 23
e 95 47
e 95 74
e 95 78
e 95 94
e 95 111
e 96 7
e 96 15
e 96 24
e 96 34
e 96 68
e 96 94
e 96 115
e 97 8
e 97 9
e 97 18
e 97 40
e 97 43
e 97 60
e 97 96
e 98 3
e 98 18
e 98 27
e 98 36
e 98 55
e 98 93
e 98 111
e 99 9
e 99 14
e 99 24
e 99 52
e 99 74
e 99 98
e 99 110
e 100 19
e 100 37
e 100 46
e 100 92
e 100 98
e 100 105
e 100 111
e 101 11
e 101 25
e 101 57
e 101 84
e 101 91
e 101 96
e 101 99
e 102 5
e 102 12
e 102 22
e 102 34
e 102 34
e 102 46
e 102 110
e 103 6
e 103 11
e 103 24
e 103 85
e 103 87
e 103 92
e 103 109
e 104 20
e 104 46
e 104 76
e 104 81
e 104 87
e 104 110
e 104 120
e 105 8
e 105 17
e 105 22
e 105 27
e 105 37
e 105 44
e 105 118
e 106 1
e 106 26
e 106 36
e 106 51
e 106 79
e 106 91
e 106 117
e 107 20
e 107 52
e 107 56
e 107 77
e 107 82
e 107 93
e 107 103
e 108 4
e 108 41
e 108 53
e 108 89
e 108 105
e 108 111
e 108 115
e 109 24
e 109 31
e 109 33
e 109 71
e 109 86
e 109 108
e 109 119
e 110 14
e 110 20
e 110 31
e 110 43
e 110 75
e 110 88
e 110 107
e 111 5
e 111 27
e 111 35
e 111 43
e 111 45
e 111 73
e 111 76
e 112 4
e 112 7
e 112 80
e 112 81
e 112 99
e 112 99
e 112 119
e 113 4
e 113 40
e 113 42
e 113 44
e 113 63
e 113 89
e 113 103
e 114 16
e 114 22
e 114 43
e 114 45
e 114 55
e 114 113
e 114 115
e 115 18
e 115 28
e 115 46
e 115 57
e 115 70
e 115 92
e 115 112
e 116 14
e 116 54
e 116 59
e 116 72
e 116 102
e 116 104
e 116 108
e 117 1
e 117 16
e 117 38
e 117 40
e 117 49
e 117 85
e 117 87
e 118 19
e 118 28
e 118 55
e 118 59
e 118 97
e 118 109
e 118 112
e 119 12
e 119 13
e 119 27
e 119 36
e 119 70
e 119 115
e 119 120
e 120 1
e 120 10
e 120 17
e 120 65
e 120 91
e 120 100
e 120 110
